21° run output:
{
    "Function": "kroA1000.tsp",
    "Problem dimension": [
        597,
        985,
        367,
        73,
        818,
        845,
        787,
        624,
        88,
        364,
        581,
        35,
        746,
        510,
        203,
        372,
        228,
        405,
        304,
        537,
        917,
        251,
        743,
        156,
        229,
        760,
        106,
        330,
        786,
        733,
        285,
        709,
        310,
        418,
        315,
        234,
        96,
        884,
        100,
        973,
        990,
        262,
        299,
        649,
        300,
        914,
        636,
        965,
        721,
        934,
        152,
        778,
        204,
        209,
        995,
        383,
        734,
        68,
        517,
        552,
        307,
        12,
        406,
        163,
        705,
        715,
        863,
        468,
        957,
        703,
        594,
        646,
        42,
        825,
        680,
        452,
        247,
        511,
        935,
        184,
        292,
        730,
        493,
        785,
        758,
        607,
        708,
        154,
        40,
        790,
        859,
        640,
        415,
        568,
        788,
        556,
        143,
        414,
        494,
        128,
        772,
        462,
        539,
        567,
        438,
        192,
        718,
        238,
        905,
        467,
        765,
        250,
        141,
        946,
        380,
        530,
        280,
        20,
        777,
        198,
        573,
        436,
        928,
        886,
        752,
        633,
        168,
        816,
        929,
        506,
        477,
        90,
        551,
        737,
        642,
        901,
        885,
        720,
        975,
        566,
        685,
        242,
        337,
        554,
        151,
        729,
        47,
        606,
        131,
        626,
        716,
        6,
        295,
        505,
        977,
        830,
        75,
        69,
        534,
        926,
        826,
        956,
        631,
        211,
        275,
        753,
        492,
        4,
        373,
        625,
        449,
        923,
        276,
        578,
        611,
        112,
        677,
        476,
        24,
        839,
        288,
        139,
        338,
        182,
        381,
        482,
        266,
        757,
        64,
        34,
        585,
        83,
        407,
        528,
        486,
        256,
        465,
        77,
        538,
        377,
        699,
        1,
        178,
        784,
        65,
        122,
        596,
        144,
        213,
        261,
        63,
        922,
        349,
        312,
        908,
        532,
        962,
        658,
        305,
        448,
        896,
        927,
        615,
        212,
        618,
        842,
        961,
        941,
        952,
        441,
        393,
        284,
        174,
        123,
        614,
        215,
        769,
        363,
        429,
        153,
        469,
        78,
        365,
        609,
        298,
        396,
        949,
        366,
        0,
        28,
        521,
        231,
        350,
        879,
        824,
        348,
        314,
        947,
        339,
        992,
        712,
        173,
        944,
        286,
        805,
        302,
        936,
        45,
        958,
        722,
        325,
        159,
        346,
        170,
        514,
        97,
        79,
        464,
        877,
        522,
        267,
        33,
        623,
        210,
        495,
        668,
        768,
        634,
        412,
        621,
        401,
        675,
        759,
        313,
        648,
        669,
        201,
        226,
        149,
        938,
        582,
        878,
        137,
        472,
        461,
        686,
        930,
        766,
        993,
        484,
        690,
        270,
        583,
        602,
        230,
        683,
        361,
        207,
        891,
        653,
        698,
        259,
        719,
        710,
        37,
        326,
        281,
        172,
        17,
        179,
        702,
        351,
        969,
        278,
        883,
        333,
        639,
        190,
        895,
        274,
        197,
        628,
        398,
        726,
        191,
        844,
        789,
        810,
        180,
        591,
        208,
        608,
        368,
        150,
        301,
        890,
        821,
        536,
        475,
        227,
        391,
        647,
        850,
        427,
        384,
        233,
        53,
        512,
        806,
        519,
        220,
        320,
        797,
        978,
        894,
        340,
        134,
        411,
        161,
        744,
        951,
        751,
        309,
        550,
        5,
        782,
        219,
        887,
        114,
        667,
        600,
        910,
        426,
        76,
        416,
        909,
        736,
        450,
        237,
        254,
        971,
        160,
        490,
        57,
        341,
        148,
        888,
        167,
        542,
        92,
        165,
        421,
        91,
        811,
        711,
        16,
        815,
        999,
        831,
        902,
        848,
        864,
        856,
        843,
        933,
        19,
        244,
        48,
        344,
        483,
        595,
        739,
        674,
        382,
        104,
        253,
        422,
        55,
        681,
        976,
        120,
        136,
        70,
        892,
        85,
        430,
        265,
        964,
        29,
        659,
        360,
        851,
        586,
        516,
        925,
        39,
        102,
        724,
        865,
        509,
        689,
        756,
        660,
        837,
        61,
        409,
        676,
        561,
        410,
        684,
        817,
        335,
        419,
        181,
        385,
        740,
        243,
        379,
        967,
        129,
        423,
        431,
        132,
        763,
        706,
        206,
        332,
        289,
        748,
        443,
        15,
        984,
        404,
        186,
        432,
        225,
        49,
        853,
        43,
        801,
        900,
        874,
        728,
        828,
        345,
        245,
        601,
        867,
        504,
        453,
        994,
        549,
        187,
        861,
        329,
        185,
        654,
        176,
        101,
        588,
        599,
        665,
        272,
        487,
        118,
        604,
        794,
        915,
        499,
        375,
        954,
        258,
        679,
        713,
        241,
        420,
        119,
        955,
        474,
        996,
        779,
        240,
        271,
        584,
        171,
        41,
        635,
        235,
        565,
        111,
        478,
        948,
        775,
        717,
        491,
        357,
        126,
        508,
        960,
        81,
        873,
        444,
        997,
        481,
        358,
        216,
        175,
        982,
        355,
        158,
        707,
        277,
        82,
        849,
        795,
        617,
        916,
        781,
        972,
        195,
        67,
        871,
        80,
        51,
        291,
        764,
        694,
        545,
        71,
        691,
        968,
        95,
        121,
        135,
        913,
        217,
        89,
        147,
        804,
        369,
        343,
        290,
        183,
        619,
        488,
        872,
        321,
        239,
        269,
        641,
        986,
        918,
        919,
        108,
        531,
        738,
        755,
        876,
        155,
        661,
        937,
        656,
        473,
        732,
        671,
        860,
        701,
        942,
        657,
        157,
        214,
        812,
        939,
        637,
        497,
        980,
        54,
        342,
        260,
        882,
        283,
        395,
        663,
        371,
        655,
        255,
        359,
        193,
        353,
        456,
        50,
        959,
        502,
        273,
        697,
        296,
        868,
        74,
        26,
        199,
        630,
        434,
        807,
        547,
        773,
        666,
        451,
        56,
        820,
        59,
        678,
        620,
        142,
        87,
        535,
        437,
        388,
        485,
        727,
        169,
        466,
        943,
        991,
        767,
        370,
        906,
        31,
        62,
        3,
        518,
        287,
        439,
        297,
        408,
        855,
        94,
        72,
        308,
        458,
        632,
        940,
        988,
        577,
        673,
        109,
        524,
        10,
        875,
        433,
        687,
        500,
        592,
        579,
        282,
        754,
        589,
        869,
        664,
        188,
        893,
        569,
        693,
        526,
        496,
        907,
        548,
        480,
        248,
        644,
        389,
        194,
        852,
        347,
        435,
        533,
        386,
        66,
        731,
        457,
        60,
        446,
        770,
        571,
        627,
        835,
        205,
        970,
        471,
        645,
        378,
        981,
        704,
        374,
        52,
        695,
        629,
        682,
        616,
        564,
        323,
        515,
        652,
        570,
        442,
        903,
        574,
        761,
        833,
        38,
        107,
        501,
        776,
        400,
        127,
        841,
        911,
        58,
        317,
        802,
        224,
        222,
        662,
        8,
        823,
        692,
        232,
        897,
        257,
        735,
        889,
        22,
        306,
        822,
        834,
        7,
        672,
        113,
        425,
        847,
        725,
        998,
        110,
        14,
        263,
        838,
        479,
        44,
        543,
        870,
        846,
        575,
        413,
        133,
        723,
        279,
        21,
        696,
        813,
        145,
        749,
        322,
        196,
        18,
        249,
        503,
        311,
        688,
        115,
        498,
        84,
        700,
        827,
        803,
        454,
        513,
        613,
        440,
        983,
        356,
        146,
        11,
        622,
        714,
        166,
        791,
        529,
        793,
        331,
        252,
        318,
        750,
        555,
        2,
        218,
        741,
        30,
        246,
        507,
        25,
        931,
        527,
        354,
        336,
        924,
        189,
        814,
        525,
        650,
        93,
        593,
        904,
        162,
        745,
        394,
        489,
        138,
        563,
        455,
        881,
        397,
        610,
        105,
        580,
        86,
        268,
        117,
        387,
        523,
        560,
        572,
        932,
        590,
        459,
        898,
        403,
        829,
        328,
        950,
        762,
        362,
        223,
        651,
        799,
        463,
        390,
        771,
        125,
        264,
        966,
        638,
        796,
        417,
        974,
        840,
        520,
        557,
        963,
        294,
        987,
        98,
        324,
        470,
        587,
        540,
        866,
        792,
        989,
        808,
        899,
        46,
        541,
        116,
        9,
        798,
        945,
        598,
        460,
        612,
        103,
        819,
        742,
        546,
        445,
        447,
        836,
        293,
        140,
        605,
        921,
        858,
        920,
        854,
        221,
        316,
        576,
        200,
        862,
        544,
        327,
        303,
        780,
        399,
        670,
        643,
        392,
        747,
        319,
        236,
        809,
        603,
        558,
        164,
        32,
        352,
        428,
        912,
        124,
        334,
        424,
        553,
        99,
        130,
        800,
        27,
        177,
        376,
        857,
        562,
        880,
        783,
        979,
        36,
        23,
        559,
        202,
        13,
        953,
        832,
        402,
        774
    ],
    "Global Optimum": 0,
    "Algorithm": "Genetic algorithm",
    "Parameters": {
        "population": 30,
        "offspring": 30,
        "mutation probability": 0.001,
        "crossover probability": 0.9
    },
    "Fitness": 1300568,
    "Solution": [
        597,
        985,
        367,
        73,
        818,
        845,
        787,
        624,
        88,
        364,
        581,
        35,
        746,
        510,
        203,
        372,
        228,
        405,
        304,
        537,
        917,
        251,
        743,
        156,
        229,
        760,
        106,
        330,
        786,
        733,
        285,
        709,
        310,
        418,
        315,
        234,
        96,
        884,
        100,
        973,
        990,
        262,
        299,
        649,
        300,
        914,
        636,
        965,
        721,
        934,
        152,
        778,
        204,
        209,
        995,
        383,
        734,
        68,
        517,
        552,
        307,
        12,
        406,
        163,
        705,
        715,
        863,
        468,
        957,
        703,
        594,
        646,
        42,
        825,
        680,
        452,
        247,
        511,
        935,
        184,
        292,
        730,
        493,
        785,
        758,
        607,
        708,
        154,
        40,
        790,
        859,
        640,
        415,
        568,
        788,
        556,
        143,
        414,
        494,
        128,
        772,
        462,
        539,
        567,
        438,
        192,
        718,
        238,
        905,
        467,
        765,
        250,
        141,
        946,
        380,
        530,
        280,
        20,
        777,
        198,
        573,
        436,
        928,
        886,
        752,
        633,
        168,
        816,
        929,
        506,
        477,
        90,
        551,
        737,
        642,
        901,
        885,
        720,
        975,
        566,
        685,
        242,
        337,
        554,
        151,
        729,
        47,
        606,
        131,
        626,
        716,
        6,
        295,
        505,
        977,
        830,
        75,
        69,
        534,
        926,
        826,
        956,
        631,
        211,
        275,
        753,
        492,
        4,
        373,
        625,
        449,
        923,
        276,
        578,
        611,
        112,
        677,
        476,
        24,
        839,
        288,
        139,
        338,
        182,
        381,
        482,
        266,
        757,
        64,
        34,
        585,
        83,
        407,
        528,
        486,
        256,
        465,
        77,
        538,
        377,
        699,
        1,
        178,
        784,
        65,
        122,
        596,
        144,
        213,
        261,
        63,
        922,
        349,
        312,
        908,
        532,
        962,
        658,
        305,
        448,
        896,
        927,
        615,
        212,
        618,
        842,
        961,
        941,
        952,
        441,
        393,
        284,
        174,
        123,
        614,
        215,
        769,
        363,
        429,
        153,
        469,
        78,
        365,
        609,
        298,
        396,
        949,
        366,
        0,
        28,
        521,
        231,
        350,
        879,
        824,
        348,
        314,
        947,
        339,
        992,
        712,
        173,
        944,
        286,
        805,
        302,
        936,
        45,
        958,
        722,
        325,
        159,
        346,
        170,
        514,
        97,
        79,
        464,
        877,
        522,
        267,
        33,
        623,
        210,
        495,
        668,
        768,
        634,
        412,
        621,
        401,
        675,
        759,
        313,
        648,
        669,
        201,
        226,
        149,
        938,
        582,
        878,
        137,
        472,
        461,
        686,
        930,
        766,
        993,
        484,
        690,
        270,
        583,
        602,
        230,
        683,
        361,
        207,
        891,
        653,
        698,
        259,
        719,
        710,
        37,
        326,
        281,
        172,
        17,
        179,
        702,
        351,
        969,
        278,
        883,
        333,
        639,
        190,
        895,
        274,
        197,
        628,
        398,
        726,
        191,
        844,
        789,
        810,
        180,
        591,
        208,
        608,
        368,
        150,
        301,
        890,
        821,
        536,
        475,
        227,
        391,
        647,
        850,
        427,
        384,
        233,
        53,
        512,
        806,
        519,
        220,
        320,
        797,
        978,
        894,
        340,
        134,
        411,
        161,
        744,
        951,
        751,
        309,
        550,
        5,
        782,
        219,
        887,
        114,
        667,
        600,
        910,
        426,
        76,
        416,
        909,
        736,
        450,
        237,
        254,
        971,
        160,
        490,
        57,
        341,
        148,
        888,
        167,
        542,
        92,
        165,
        421,
        91,
        811,
        711,
        16,
        815,
        999,
        831,
        902,
        848,
        864,
        856,
        843,
        933,
        19,
        244,
        48,
        344,
        483,
        595,
        739,
        674,
        382,
        104,
        253,
        422,
        55,
        681,
        976,
        120,
        136,
        70,
        892,
        85,
        430,
        265,
        964,
        29,
        659,
        360,
        851,
        586,
        516,
        925,
        39,
        102,
        724,
        865,
        509,
        689,
        756,
        660,
        837,
        61,
        409,
        676,
        561,
        410,
        684,
        817,
        335,
        419,
        181,
        385,
        740,
        243,
        379,
        967,
        129,
        423,
        431,
        132,
        763,
        706,
        206,
        332,
        289,
        748,
        443,
        15,
        984,
        404,
        186,
        432,
        225,
        49,
        853,
        43,
        801,
        900,
        874,
        728,
        828,
        345,
        245,
        601,
        867,
        504,
        453,
        994,
        549,
        187,
        861,
        329,
        185,
        654,
        176,
        101,
        588,
        599,
        665,
        272,
        487,
        118,
        604,
        794,
        915,
        499,
        375,
        954,
        258,
        679,
        713,
        241,
        420,
        119,
        955,
        474,
        996,
        779,
        240,
        271,
        584,
        171,
        41,
        635,
        235,
        565,
        111,
        478,
        948,
        775,
        717,
        491,
        357,
        126,
        508,
        960,
        81,
        873,
        444,
        997,
        481,
        358,
        216,
        175,
        982,
        355,
        158,
        707,
        277,
        82,
        849,
        795,
        617,
        916,
        781,
        972,
        195,
        67,
        871,
        80,
        51,
        291,
        764,
        694,
        545,
        71,
        691,
        968,
        95,
        121,
        135,
        913,
        217,
        89,
        147,
        804,
        369,
        343,
        290,
        183,
        619,
        488,
        872,
        321,
        239,
        269,
        641,
        986,
        918,
        919,
        108,
        531,
        738,
        755,
        876,
        155,
        661,
        937,
        656,
        473,
        732,
        671,
        860,
        701,
        942,
        657,
        157,
        214,
        812,
        939,
        637,
        497,
        980,
        54,
        342,
        260,
        882,
        283,
        395,
        663,
        371,
        655,
        255,
        359,
        193,
        353,
        456,
        50,
        959,
        502,
        273,
        697,
        296,
        868,
        74,
        26,
        199,
        630,
        434,
        807,
        547,
        773,
        666,
        451,
        56,
        820,
        59,
        678,
        620,
        142,
        87,
        535,
        437,
        388,
        485,
        727,
        169,
        466,
        943,
        991,
        767,
        370,
        906,
        31,
        62,
        3,
        518,
        287,
        439,
        297,
        408,
        855,
        94,
        72,
        308,
        458,
        632,
        940,
        988,
        577,
        673,
        109,
        524,
        10,
        875,
        433,
        687,
        500,
        592,
        579,
        282,
        754,
        589,
        869,
        664,
        188,
        893,
        569,
        693,
        526,
        496,
        907,
        548,
        480,
        248,
        644,
        389,
        194,
        852,
        347,
        435,
        533,
        386,
        66,
        731,
        457,
        60,
        446,
        770,
        571,
        627,
        835,
        205,
        970,
        471,
        645,
        378,
        981,
        704,
        374,
        52,
        695,
        629,
        682,
        616,
        564,
        323,
        515,
        652,
        570,
        442,
        903,
        574,
        761,
        833,
        38,
        107,
        501,
        776,
        400,
        127,
        841,
        911,
        58,
        317,
        802,
        224,
        222,
        662,
        8,
        823,
        692,
        232,
        897,
        257,
        735,
        889,
        22,
        306,
        822,
        834,
        7,
        672,
        113,
        425,
        847,
        725,
        998,
        110,
        14,
        263,
        838,
        479,
        44,
        543,
        870,
        846,
        575,
        413,
        133,
        723,
        279,
        21,
        696,
        813,
        145,
        749,
        322,
        196,
        18,
        249,
        503,
        311,
        688,
        115,
        498,
        84,
        700,
        827,
        803,
        454,
        513,
        613,
        440,
        983,
        356,
        146,
        11,
        622,
        714,
        166,
        791,
        529,
        793,
        331,
        252,
        318,
        750,
        555,
        2,
        218,
        741,
        30,
        246,
        507,
        25,
        931,
        527,
        354,
        336,
        924,
        189,
        814,
        525,
        650,
        93,
        593,
        904,
        162,
        745,
        394,
        489,
        138,
        563,
        455,
        881,
        397,
        610,
        105,
        580,
        86,
        268,
        117,
        387,
        523,
        560,
        572,
        932,
        590,
        459,
        898,
        403,
        829,
        328,
        950,
        762,
        362,
        223,
        651,
        799,
        463,
        390,
        771,
        125,
        264,
        966,
        638,
        796,
        417,
        974,
        840,
        520,
        557,
        963,
        294,
        987,
        98,
        324,
        470,
        587,
        540,
        866,
        792,
        989,
        808,
        899,
        46,
        541,
        116,
        9,
        798,
        945,
        598,
        460,
        612,
        103,
        819,
        742,
        546,
        445,
        447,
        836,
        293,
        140,
        605,
        921,
        858,
        920,
        854,
        221,
        316,
        576,
        200,
        862,
        544,
        327,
        303,
        780,
        399,
        670,
        643,
        392,
        747,
        319,
        236,
        809,
        603,
        558,
        164,
        32,
        352,
        428,
        912,
        124,
        334,
        424,
        553,
        99,
        130,
        800,
        27,
        177,
        376,
        857,
        562,
        880,
        783,
        979,
        36,
        23,
        559,
        202,
        13,
        953,
        832,
        402,
        774
    ],
    "Nb of functions evaluations": 400020,
    "Computational time in seconds": 5464.849331378937,
    "Stopping criterion in evaluations": 400000
}